2	25
395	594	185	98	70	947	84	856	329	944	891	816	244	299	403	734	746	455	183	465	70	646	306	219	368	
714	485	173	80	539	633	652	74	6	888	549	909	218	744	824	11	345	589	252	30	464	586	866	181	647	
1433	1433	
